73.0 39.0 0
67.0 91.0 23
39.0 21.0 3
3.0 9.0 24
97.0 15.0 15
91.0 65.0 15
55.0 75.0 24
55.0 71.0 7
57.0 85.0 25
21.0 15.0 13
47.0 57.0 5
51.0 97.0 7
11.0 11.0 5
43.0 59.0 14
63.0 69.0 13
55.0 77.0 5
35.0 11.0 24
27.0 91.0 15
49.0 25.0 9
29.0 93.0 16
71.0 27.0 13
31.0 43.0 16
27.0 9.0 13
67.0 99.0 24
87.0 81.0 20
23.0 81.0 23
89.0 33.0 20
71.0 91.0 3
19.0 77.0 15
65.0 77.0 12
87.0 79.0 19
19.0 83.0 4
1.0 59.0 15
55.0 7.0 1
